c colouring generated by benchmark framework
p edge 87 406
v 1 8
v 2 9
v 3 4
v 4 3
v 5 4
v 6 4
v 7 1
v 8 2
v 9 1
v 10 4
v 11 0
v 12 0
v 13 10
v 14 9
v 15 8
v 16 0
v 17 5
v 18 10
v 19 6
v 20 10
v 21 6
v 22 1
v 23 5
v 24 0
v 25 1
v 26 8
v 27 9
v 28 4
v 29 4
v 30 2
v 31 1
v 32 5
v 33 10
v 34 2
v 35 3
v 36 9
v 37 1
v 38 9
v 39 4
v 40 2
v 41 6
v 42 3
v 43 4
v 44 0
v 45 2
v 46 4
v 47 0
v 48 9
v 49 0
v 50 3
v 51 0
v 52 3
v 53 5
v 54 0
v 55 10
v 56 0
v 57 6
v 58 8
v 59 2
v 60 2
v 61 5
v 62 6
v 63 5
v 64 8
v 65 9
v 66 1
v 67 2
v 68 1
v 69 2
v 70 9
v 71 1
v 72 1
v 73 4
v 74 8
v 75 5
v 76 6
v 77 8
v 78 0
v 79 2
v 80 3
v 81 2
v 82 0
v 83 7
v 84 10
v 85 1
v 86 0
v 87 0
